data;

param n:=5;

param durre:=1		40 
	  		 2		45	
	  		 3 		35
	  		 4		32
	  		 5		50	;
param DNettoyage(tr):	1		2 		3 		4		5 :=
					1	0		11		7		13		11	
					2	5		0		13		15		15	
					3	13		15		0		23		11	
					4	9		13		5		0		3	
					5	3		7		7		7		0	;

					